c "256508.clq"
p edge 100 1344
e 1 17
e 1 18
e 1 19
e 1 21
e 1 23
e 1 24
e 1 25
e 1 28
e 1 29
e 1 31
e 1 32
e 1 33
e 1 35
e 1 36
e 1 39
e 1 42
e 1 43
e 1 44
e 1 48
e 1 51
e 1 53
e 1 54
e 1 55
e 1 56
e 1 64
e 1 71
e 1 73
e 1 84
e 1 91
e 1 93
e 1 97
e 2 17
e 2 18
e 2 19
e 2 20
e 2 21
e 2 22
e 2 24
e 2 26
e 2 28
e 2 31
e 2 32
e 2 33
e 2 34
e 2 35
e 2 37
e 2 40
e 2 50
e 2 52
e 2 62
e 2 65
e 2 71
e 2 73
e 2 77
e 2 86
e 2 96
e 3 17
e 3 18
e 3 19
e 3 20
e 3 21
e 3 24
e 3 27
e 3 29
e 3 30
e 3 31
e 3 37
e 3 38
e 3 39
e 3 43
e 3 46
e 3 47
e 3 51
e 3 54
e 3 62
e 3 75
e 3 79
e 3 86
e 3 88
e 3 90
e 3 96
e 3 97
e 3 98
e 3 99
e 4 17
e 4 18
e 4 19
e 4 27
e 4 29
e 4 33
e 4 45
e 4 52
e 4 60
e 4 65
e 4 75
e 4 77
e 4 80
e 4 88
e 4 89
e 4 95
e 5 17
e 5 18
e 5 20
e 5 21
e 5 22
e 5 23
e 5 25
e 5 30
e 5 37
e 5 42
e 5 43
e 5 44
e 5 55
e 5 56
e 5 70
e 5 85
e 5 92
e 5 96
e 6 17
e 6 18
e 6 20
e 6 21
e 6 22
e 6 24
e 6 25
e 6 26
e 6 36
e 6 41
e 6 42
e 6 45
e 6 50
e 6 51
e 6 54
e 6 58
e 6 60
e 6 72
e 6 74
e 6 88
e 6 89
e 7 17
e 7 18
e 7 19
e 7 20
e 7 22
e 7 23
e 7 25
e 7 26
e 7 27
e 7 28
e 7 29
e 7 31
e 7 32
e 7 33
e 7 35
e 7 36
e 7 37
e 7 41
e 7 43
e 7 45
e 7 48
e 7 54
e 7 57
e 7 60
e 7 62
e 7 64
e 7 70
e 7 71
e 7 73
e 7 77
e 7 78
e 7 81
e 7 82
e 7 88
e 7 89
e 7 91
e 7 97
e 7 99
e 7 100
e 8 17
e 8 18
e 8 19
e 8 20
e 8 21
e 8 22
e 8 23
e 8 26
e 8 27
e 8 29
e 8 38
e 8 52
e 8 57
e 8 65
e 8 66
e 8 84
e 8 98
e 8 99
e 8 100
e 9 17
e 9 18
e 9 19
e 9 20
e 9 21
e 9 23
e 9 24
e 9 25
e 9 26
e 9 28
e 9 32
e 9 34
e 9 36
e 9 38
e 9 43
e 9 46
e 9 51
e 9 54
e 9 57
e 9 58
e 9 60
e 9 61
e 9 67
e 9 72
e 9 79
e 9 83
e 9 93
e 9 96
e 10 17
e 10 18
e 10 19
e 10 20
e 10 21
e 10 22
e 10 24
e 10 25
e 10 26
e 10 27
e 10 32
e 10 39
e 10 49
e 10 50
e 10 52
e 10 54
e 10 59
e 10 61
e 10 62
e 10 67
e 10 69
e 10 73
e 10 75
e 10 76
e 10 85
e 10 90
e 10 92
e 11 17
e 11 19
e 11 20
e 11 21
e 11 22
e 11 23
e 11 30
e 11 36
e 11 38
e 11 39
e 11 43
e 11 44
e 11 45
e 11 46
e 11 49
e 11 58
e 11 64
e 11 66
e 11 68
e 11 69
e 11 74
e 11 81
e 11 83
e 11 88
e 11 89
e 11 97
e 12 17
e 12 18
e 12 19
e 12 22
e 12 24
e 12 25
e 12 26
e 12 28
e 12 34
e 12 36
e 12 37
e 12 38
e 12 41
e 12 53
e 12 55
e 12 64
e 12 73
e 12 74
e 12 80
e 13 17
e 13 18
e 13 19
e 13 20
e 13 21
e 13 23
e 13 24
e 13 25
e 13 27
e 13 28
e 13 32
e 13 39
e 13 42
e 13 46
e 13 47
e 13 56
e 13 68
e 14 17
e 14 18
e 14 19
e 14 20
e 14 22
e 14 23
e 14 24
e 14 26
e 14 28
e 14 30
e 14 34
e 14 35
e 14 41
e 14 52
e 14 63
e 14 65
e 14 71
e 14 72
e 14 76
e 14 78
e 14 80
e 14 84
e 14 85
e 14 87
e 14 92
e 14 100
e 15 17
e 15 18
e 15 19
e 15 20
e 15 21
e 15 22
e 15 23
e 15 24
e 15 25
e 15 27
e 15 28
e 15 30
e 15 32
e 15 33
e 15 34
e 15 35
e 15 39
e 15 40
e 15 42
e 15 43
e 15 44
e 15 45
e 15 49
e 15 52
e 15 53
e 15 57
e 15 61
e 15 64
e 15 65
e 15 73
e 15 80
e 15 83
e 15 89
e 15 90
e 15 92
e 15 96
e 15 97
e 16 17
e 16 18
e 16 19
e 16 20
e 16 21
e 16 22
e 16 23
e 16 30
e 16 31
e 16 33
e 16 41
e 16 42
e 16 51
e 16 63
e 16 64
e 16 74
e 16 80
e 16 92
e 17 18
e 17 19
e 17 20
e 17 21
e 17 22
e 17 23
e 17 24
e 17 25
e 17 26
e 17 27
e 17 28
e 17 29
e 17 30
e 17 31
e 17 32
e 17 33
e 17 34
e 17 35
e 17 36
e 17 38
e 17 39
e 17 40
e 17 42
e 17 43
e 17 44
e 17 47
e 17 48
e 17 51
e 17 53
e 17 55
e 17 56
e 17 60
e 17 64
e 17 67
e 17 69
e 17 77
e 17 79
e 17 82
e 17 87
e 17 88
e 17 89
e 17 91
e 17 93
e 17 97
e 17 99
e 18 19
e 18 20
e 18 21
e 18 22
e 18 23
e 18 24
e 18 25
e 18 27
e 18 28
e 18 29
e 18 30
e 18 31
e 18 33
e 18 35
e 18 40
e 18 41
e 18 43
e 18 44
e 18 45
e 18 46
e 18 50
e 18 53
e 18 55
e 18 56
e 18 57
e 18 58
e 18 61
e 18 63
e 18 65
e 18 66
e 18 68
e 18 74
e 18 76
e 18 77
e 18 79
e 18 80
e 18 86
e 18 90
e 18 95
e 18 97
e 19 20
e 19 21
e 19 22
e 19 23
e 19 24
e 19 25
e 19 26
e 19 27
e 19 28
e 19 29
e 19 31
e 19 32
e 19 33
e 19 34
e 19 36
e 19 37
e 19 38
e 19 41
e 19 42
e 19 46
e 19 48
e 19 50
e 19 53
e 19 56
e 19 61
e 19 66
e 19 67
e 19 69
e 19 71
e 19 72
e 19 82
e 19 94
e 19 95
e 19 96
e 19 97
e 19 99
e 20 21
e 20 22
e 20 23
e 20 24
e 20 25
e 20 26
e 20 27
e 20 28
e 20 29
e 20 30
e 20 31
e 20 32
e 20 33
e 20 34
e 20 35
e 20 37
e 20 38
e 20 39
e 20 40
e 20 41
e 20 45
e 20 46
e 20 47
e 20 48
e 20 49
e 20 50
e 20 51
e 20 52
e 20 54
e 20 55
e 20 60
e 20 63
e 20 64
e 20 68
e 20 70
e 20 71
e 20 76
e 20 78
e 20 81
e 20 82
e 20 86
e 20 90
e 20 95
e 20 100
e 21 22
e 21 23
e 21 24
e 21 26
e 21 27
e 21 28
e 21 29
e 21 30
e 21 31
e 21 32
e 21 33
e 21 34
e 21 35
e 21 37
e 21 39
e 21 40
e 21 41
e 21 43
e 21 44
e 21 46
e 21 47
e 21 48
e 21 52
e 21 54
e 21 55
e 21 56
e 21 57
e 21 59
e 21 60
e 21 63
e 21 65
e 21 66
e 21 67
e 21 73
e 21 74
e 21 76
e 21 78
e 21 80
e 21 81
e 21 82
e 21 83
e 21 84
e 21 85
e 21 89
e 21 91
e 21 93
e 21 95
e 21 99
e 21 100
e 22 23
e 22 25
e 22 26
e 22 30
e 22 31
e 22 33
e 22 34
e 22 35
e 22 36
e 22 37
e 22 38
e 22 39
e 22 40
e 22 41
e 22 42
e 22 44
e 22 46
e 22 48
e 22 55
e 22 56
e 22 58
e 22 59
e 22 60
e 22 61
e 22 62
e 22 65
e 22 66
e 22 67
e 22 68
e 22 69
e 22 86
e 22 87
e 22 88
e 22 94
e 22 96
e 22 100
e 23 24
e 23 25
e 23 26
e 23 27
e 23 28
e 23 29
e 23 30
e 23 31
e 23 33
e 23 36
e 23 40
e 23 41
e 23 42
e 23 43
e 23 44
e 23 45
e 23 47
e 23 52
e 23 60
e 23 62
e 23 63
e 23 67
e 23 68
e 23 71
e 23 74
e 23 75
e 23 78
e 23 81
e 23 86
e 23 91
e 23 94
e 24 25
e 24 26
e 24 27
e 24 29
e 24 30
e 24 32
e 24 33
e 24 34
e 24 35
e 24 37
e 24 38
e 24 39
e 24 41
e 24 42
e 24 44
e 24 45
e 24 46
e 24 47
e 24 48
e 24 50
e 24 51
e 24 55
e 24 57
e 24 58
e 24 65
e 24 66
e 24 67
e 24 70
e 24 72
e 24 78
e 24 79
e 24 83
e 24 85
e 24 88
e 24 92
e 25 26
e 25 27
e 25 28
e 25 29
e 25 30
e 25 31
e 25 32
e 25 36
e 25 37
e 25 40
e 25 42
e 25 43
e 25 45
e 25 47
e 25 48
e 25 49
e 25 51
e 25 52
e 25 56
e 25 57
e 25 58
e 25 59
e 25 64
e 25 72
e 25 75
e 25 79
e 25 80
e 25 85
e 25 87
e 25 88
e 25 90
e 25 92
e 25 93
e 25 96
e 25 98
e 25 100
e 26 27
e 26 29
e 26 35
e 26 38
e 26 39
e 26 40
e 26 42
e 26 54
e 26 57
e 26 59
e 26 60
e 26 61
e 26 63
e 26 68
e 26 70
e 26 75
e 26 84
e 26 86
e 26 92
e 26 97
e 27 28
e 27 29
e 27 31
e 27 32
e 27 36
e 27 37
e 27 38
e 27 44
e 27 49
e 27 53
e 27 62
e 27 67
e 27 70
e 27 71
e 27 75
e 27 76
e 27 79
e 27 80
e 27 90
e 27 95
e 27 98
e 27 99
e 28 29
e 28 30
e 28 33
e 28 34
e 28 35
e 28 36
e 28 37
e 28 38
e 28 39
e 28 41
e 28 43
e 28 47
e 28 52
e 28 54
e 28 57
e 28 59
e 28 64
e 28 66
e 28 68
e 28 73
e 28 74
e 28 76
e 28 77
e 28 81
e 28 82
e 28 86
e 29 30
e 29 31
e 29 32
e 29 34
e 29 36
e 29 38
e 29 39
e 29 40
e 29 44
e 29 46
e 29 47
e 29 49
e 29 50
e 29 52
e 29 56
e 29 57
e 29 59
e 29 61
e 29 62
e 29 63
e 29 68
e 29 69
e 29 70
e 29 81
e 29 82
e 29 83
e 29 84
e 29 87
e 29 96
e 29 98
e 30 31
e 30 35
e 30 47
e 30 48
e 30 49
e 30 50
e 30 54
e 30 55
e 30 59
e 30 60
e 30 61
e 30 66
e 30 67
e 30 69
e 30 73
e 30 79
e 30 80
e 30 81
e 30 84
e 30 89
e 30 90
e 30 91
e 30 96
e 30 97
e 30 98
e 30 100
e 31 32
e 31 34
e 31 37
e 31 40
e 31 41
e 31 43
e 31 44
e 31 45
e 31 47
e 31 54
e 31 56
e 31 64
e 31 83
e 31 87
e 31 88
e 31 95
e 31 98
e 32 33
e 32 34
e 32 36
e 32 40
e 32 48
e 32 50
e 32 51
e 32 53
e 32 54
e 32 57
e 32 59
e 32 61
e 32 65
e 32 68
e 32 69
e 32 73
e 32 77
e 32 83
e 32 84
e 32 87
e 32 93
e 32 95
e 32 96
e 32 97
e 33 34
e 33 35
e 33 36
e 33 39
e 33 40
e 33 42
e 33 43
e 33 46
e 33 49
e 33 61
e 33 62
e 33 66
e 33 67
e 33 71
e 33 72
e 33 73
e 33 77
e 33 81
e 33 85
e 33 89
e 33 91
e 33 94
e 33 98
e 33 99
e 34 35
e 34 37
e 34 39
e 34 40
e 34 47
e 34 49
e 34 53
e 34 55
e 34 59
e 34 64
e 34 66
e 34 77
e 34 82
e 34 85
e 34 86
e 34 89
e 35 37
e 35 38
e 35 43
e 35 48
e 35 53
e 35 55
e 35 66
e 35 72
e 35 73
e 35 74
e 35 80
e 35 88
e 35 92
e 35 99
e 36 40
e 36 44
e 36 45
e 36 46
e 36 47
e 36 48
e 36 50
e 36 53
e 36 55
e 36 59
e 36 65
e 36 70
e 36 78
e 36 81
e 36 82
e 36 84
e 36 88
e 37 38
e 37 42
e 37 44
e 37 45
e 37 46
e 37 51
e 37 52
e 37 54
e 37 56
e 37 58
e 37 59
e 37 62
e 37 63
e 37 69
e 37 70
e 37 73
e 37 74
e 37 77
e 37 85
e 38 41
e 38 45
e 38 48
e 38 49
e 38 50
e 38 51
e 38 58
e 38 65
e 38 67
e 38 71
e 38 72
e 38 78
e 38 81
e 38 83
e 38 87
e 38 90
e 39 41
e 39 42
e 39 45
e 39 49
e 39 50
e 39 53
e 39 55
e 39 58
e 39 59
e 39 62
e 39 64
e 39 65
e 39 66
e 39 73
e 39 80
e 39 94
e 39 97
e 39 100
e 40 47
e 40 52
e 40 54
e 40 58
e 40 60
e 40 63
e 40 74
e 40 76
e 40 88
e 41 44
e 41 48
e 41 49
e 41 51
e 41 53
e 41 56
e 41 57
e 41 61
e 41 63
e 41 75
e 41 85
e 41 94
e 41 98
e 42 47
e 42 50
e 42 53
e 42 57
e 42 58
e 42 60
e 42 61
e 42 62
e 42 63
e 42 65
e 42 69
e 42 78
e 42 79
e 42 82
e 42 87
e 42 92
e 42 97
e 43 45
e 43 46
e 43 49
e 43 52
e 43 53
e 43 57
e 43 59
e 43 64
e 43 70
e 43 73
e 43 75
e 43 76
e 43 78
e 43 82
e 43 84
e 43 88
e 43 89
e 43 93
e 43 94
e 44 48
e 44 51
e 44 55
e 44 56
e 44 59
e 44 60
e 44 63
e 44 64
e 44 69
e 44 72
e 44 74
e 44 81
e 44 83
e 44 87
e 44 90
e 44 91
e 44 94
e 44 96
e 44 100
e 45 46
e 45 50
e 45 56
e 45 58
e 45 67
e 45 85
e 45 93
e 45 95
e 45 100
e 46 49
e 46 54
e 46 66
e 46 70
e 46 74
e 46 83
e 46 87
e 46 90
e 47 49
e 47 61
e 47 85
e 47 98
e 48 51
e 48 60
e 48 62
e 48 65
e 48 67
e 48 68
e 48 69
e 48 71
e 48 74
e 48 75
e 48 79
e 48 84
e 48 86
e 48 87
e 48 91
e 48 92
e 48 94
e 48 95
e 48 100
e 49 50
e 49 59
e 49 70
e 49 75
e 49 80
e 49 84
e 49 87
e 49 98
e 50 51
e 50 52
e 50 61
e 50 69
e 50 72
e 50 75
e 50 80
e 50 83
e 50 92
e 50 93
e 50 98
e 51 53
e 51 58
e 51 61
e 51 72
e 51 81
e 52 56
e 52 65
e 52 83
e 52 90
e 53 57
e 53 58
e 53 67
e 53 72
e 53 84
e 53 86
e 53 97
e 53 100
e 54 55
e 54 69
e 54 72
e 54 83
e 54 88
e 54 94
e 55 62
e 55 71
e 55 82
e 55 93
e 55 96
e 56 58
e 56 63
e 56 71
e 56 76
e 56 77
e 56 78
e 56 81
e 57 63
e 57 87
e 57 99
e 58 62
e 58 70
e 58 77
e 58 79
e 58 95
e 58 96
e 58 99
e 59 60
e 59 62
e 59 66
e 59 68
e 59 69
e 59 70
e 59 76
e 59 78
e 59 85
e 59 89
e 59 90
e 59 91
e 60 63
e 60 64
e 60 71
e 60 77
e 60 82
e 60 86
e 61 72
e 61 77
e 61 80
e 61 92
e 62 69
e 62 70
e 62 72
e 62 75
e 62 76
e 62 78
e 62 79
e 62 89
e 62 94
e 63 76
e 63 78
e 63 91
e 63 93
e 64 66
e 64 68
e 64 79
e 64 82
e 64 99
e 65 67
e 65 68
e 65 70
e 65 79
e 65 86
e 65 90
e 65 98
e 66 68
e 66 71
e 66 74
e 66 94
e 66 99
e 66 100
e 67 68
e 67 73
e 67 86
e 67 96
e 68 71
e 68 75
e 68 77
e 68 85
e 69 74
e 69 77
e 69 78
e 69 81
e 69 85
e 69 86
e 69 92
e 69 95
e 70 75
e 70 80
e 70 93
e 70 97
e 71 79
e 71 81
e 71 84
e 71 93
e 71 95
e 71 98
e 72 76
e 72 83
e 73 76
e 73 84
e 73 89
e 73 93
e 74 75
e 74 76
e 74 78
e 74 82
e 74 91
e 74 94
e 74 97
e 74 100
e 75 87
e 75 94
e 75 99
e 76 92
e 77 79
e 77 83
e 77 89
e 77 90
e 79 82
e 79 85
e 79 98
e 80 88
e 80 89
e 80 94
e 81 84
e 81 93
e 82 87
e 82 93
e 82 95
e 84 86
e 85 92
e 85 99
e 86 91
e 86 94
e 87 91
e 88 91
e 88 98
e 89 90
e 89 91
e 89 95
e 89 99
e 91 95
e 92 100
e 94 96
